c A0 = 1
c A1 = 2
c A2 = 3
c F1 = -4
c F2 = -5
c F3 = 6
c F4 = 9
c F5 = -1
c F6 = -2
c F7 = -3
c F8 = 12
c F9 = 14
c F10 = 15
p cnf 17 52 11
-4 0
-5 0
6 0
9 0
-1 0
-2 0
-3 0
12 0
14 0
15 0
4 2 -3 0
-4 -2 0
-4 3 0
-5 1 2 0
5 -1 0
5 -2 0
-6 2 7 0
6 -2 0
6 -7 0
7 -8 -2 0
-7 8 0
-7 2 0
8 -3 -1 0
-8 3 0
-8 1 0
-9 10 3 0
9 -10 0
9 -3 0
-10 2 11 0
10 -2 0
10 -11 0
11 -2 -1 0
-11 2 0
-11 1 0
12 2 -13 0
-12 -2 0
-12 13 0
-13 3 1 0
13 -3 0
13 -1 0
14 -2 -1 0
-14 2 0
-14 1 0
15 -16 -17 0
-15 16 0
-15 17 0
-16 2 2 0
16 -2 0
16 -2 0
17 -3 -1 0
-17 3 0
-17 1 0
